nNurses = 188;
nHours = 28;
minHours = 3;
maxHours = 11;
maxConsec = 6;
maxPresence = 13;
demand = [29, 34, 36, 32, 30, 30, 30, 25, 23, 19, 15, 20, 16, 14, 14, 14, 16, 21, 19, 16, 14, 19, 24, 28, 25, 23, 21, 20];
